(declare-fun temp182_1 () (_ BitVec 64))
(declare-fun var527257 () (_ BitVec 64))
(declare-fun var527256 () (_ BitVec 64))
(declare-fun var134691 () (_ BitVec 64))
(declare-fun var594101 () (_ BitVec 64))
(declare-fun var659958 () (_ BitVec 64))
(declare-fun temp182_2 () (_ BitVec 64))
(declare-fun var2690683 () (_ BitVec 64))
(declare-fun var2690688 () (_ BitVec 64))
(declare-fun var2820316 () (_ BitVec 64))
(declare-fun temp182_3 () (_ BitVec 64))
(declare-fun var3018363 () (_ BitVec 64))
(declare-fun var3018368 () (_ BitVec 64))
(declare-fun var3147996 () (_ BitVec 64))
(declare-fun temp182_5 () (_ BitVec 64))
(declare-fun temp182_4 () (_ BitVec 64))
(declare-fun temp182_7 () (_ BitVec 64))
(declare-fun temp182_6 () (_ BitVec 64))
(declare-fun temp182_9 () (_ BitVec 64))
(declare-fun temp182_8 () (_ BitVec 64))
(declare-fun temp182_11 () (_ BitVec 64))
(declare-fun temp182_10 () (_ BitVec 64))
(declare-fun temp182_13 () (_ BitVec 64))
(declare-fun temp182_12 () (_ BitVec 64))
(declare-fun temp182_15 () (_ BitVec 64))
(declare-fun temp182_14 () (_ BitVec 64))
(declare-fun temp182_17 () (_ BitVec 64))
(declare-fun temp182_16 () (_ BitVec 64))
(declare-fun temp182_19 () (_ BitVec 64))
(declare-fun temp182_18 () (_ BitVec 64))
(declare-fun temp182_21 () (_ BitVec 64))
(declare-fun temp182_20 () (_ BitVec 64))
(declare-fun temp182_23 () (_ BitVec 64))
(declare-fun temp182_22 () (_ BitVec 64))
(declare-fun temp182_25 () (_ BitVec 64))
(declare-fun temp182_24 () (_ BitVec 64))
(declare-fun temp182_27 () (_ BitVec 64))
(declare-fun temp182_26 () (_ BitVec 64))
(declare-fun temp182_29 () (_ BitVec 64))
(declare-fun temp182_28 () (_ BitVec 64))
(declare-fun temp182_31 () (_ BitVec 64))
(declare-fun temp182_30 () (_ BitVec 64))
(declare-fun temp182_33 () (_ BitVec 64))
(declare-fun temp182_32 () (_ BitVec 64))
(declare-fun temp182_35 () (_ BitVec 64))
(declare-fun temp182_34 () (_ BitVec 64))
(declare-fun temp182_37 () (_ BitVec 64))
(declare-fun temp182_36 () (_ BitVec 64))
(declare-fun temp182_39 () (_ BitVec 64))
(declare-fun temp182_38 () (_ BitVec 64))
(declare-fun temp182_41 () (_ BitVec 64))
(declare-fun temp182_40 () (_ BitVec 64))
(declare-fun temp182_43 () (_ BitVec 64))
(declare-fun temp182_42 () (_ BitVec 64))
(declare-fun temp182_45 () (_ BitVec 64))
(declare-fun temp182_44 () (_ BitVec 64))
(declare-fun temp182_47 () (_ BitVec 64))
(declare-fun temp182_46 () (_ BitVec 64))
(declare-fun temp182_49 () (_ BitVec 64))
(declare-fun temp182_48 () (_ BitVec 64))
(declare-fun temp182_51 () (_ BitVec 64))
(declare-fun temp182_50 () (_ BitVec 64))
(assert (= temp182_1 #x0000000000000007))
(assert (= var527257 temp182_1))
(assert (= var527256 var527257))
(assert (= var134691 var527256))
(assert (= var594101 var134691))
(assert (= var659958 var594101))
(assert (= temp182_2 #x0000000000000000))
(assert (= var2690683 temp182_2))
(assert (= var2690688 var2690683))
(assert (= var2820316 var2690688))
(assert (= temp182_3 #x0000000000000000))
(assert (= var3018363 temp182_3))
(assert (= var3018368 var3018363))
(assert (= var3147996 var3018368))
(assert (= temp182_5 #x0000000000000000))
(assert (= temp182_4 temp182_5))
(assert (= temp182_7 #x0000000000000000))
(assert (= temp182_6 temp182_7))
(assert (= temp182_9 #x0000000000000000))
(assert (= temp182_8 temp182_9))
(assert (= temp182_11 #x0000000000000000))
(assert (= temp182_10 temp182_11))
(assert (= temp182_13 #x0000000000000000))
(assert (= temp182_12 temp182_13))
(assert (= temp182_15 #x0000000000000000))
(assert (= temp182_14 temp182_15))
(assert (= temp182_17 #x0000000000000000))
(assert (= temp182_16 temp182_17))
(assert (= temp182_19 #x0000000000000000))
(assert (= temp182_18 temp182_19))
(assert (= temp182_21 #x0000000000000000))
(assert (= temp182_20 temp182_21))
(assert (= temp182_23 #x0000000000000000))
(assert (= temp182_22 temp182_23))
(assert (= temp182_25 #x0000000000000000))
(assert (= temp182_24 temp182_25))
(assert (= temp182_27 #x0000000000000000))
(assert (= temp182_26 temp182_27))
(assert (= temp182_29 #x0000000000000000))
(assert (= temp182_28 temp182_29))
(assert (= temp182_31 #x0000000000000000))
(assert (= temp182_30 temp182_31))
(assert (= temp182_33 #x0000000000000000))
(assert (= temp182_32 temp182_33))
(assert (= temp182_35 #x0000000000000000))
(assert (= temp182_34 temp182_35))
(assert (= temp182_37 #x0000000000000000))
(assert (= temp182_36 temp182_37))
(assert (= temp182_39 #x0000000000000000))
(assert (= temp182_38 temp182_39))
(assert (= temp182_41 #x0000000000000000))
(assert (= temp182_40 temp182_41))
(assert (= temp182_43 #x0000000000000000))
(assert (= temp182_42 temp182_43))
(assert (= temp182_45 #x0000000000000000))
(assert (= temp182_44 temp182_45))
(assert (= temp182_47 #x0000000000000000))
(assert (= temp182_46 temp182_47))
(assert (= temp182_49 #x0000000000000000))
(assert (= temp182_48 temp182_49))
(assert (= temp182_51 #x0000000000000000))
(assert (= temp182_50 temp182_51))
(model-add temp182_1 () (_ BitVec 64) #x0000000000000007)
(model-add var527257 () (_ BitVec 64) #x0000000000000007)
(model-add var527256 () (_ BitVec 64) #x0000000000000007)
(model-add var134691 () (_ BitVec 64) #x0000000000000007)
(model-add var594101 () (_ BitVec 64) #x0000000000000007)
(model-add var659958 () (_ BitVec 64) #x0000000000000007)
(model-add temp182_2 () (_ BitVec 64) #x0000000000000000)
(model-add var2690683 () (_ BitVec 64) #x0000000000000000)
(model-add var2690688 () (_ BitVec 64) #x0000000000000000)
(model-add var2820316 () (_ BitVec 64) #x0000000000000000)
(model-add temp182_3 () (_ BitVec 64) #x0000000000000000)
(model-add var3018363 () (_ BitVec 64) #x0000000000000000)
(model-add var3018368 () (_ BitVec 64) #x0000000000000000)
(model-add var3147996 () (_ BitVec 64) #x0000000000000000)
(model-add temp182_5 () (_ BitVec 64) #x0000000000000000)
(model-add temp182_4 () (_ BitVec 64) #x0000000000000000)
(model-add temp182_7 () (_ BitVec 64) #x0000000000000000)
(model-add temp182_6 () (_ BitVec 64) #x0000000000000000)
(model-add temp182_9 () (_ BitVec 64) #x0000000000000000)
(model-add temp182_8 () (_ BitVec 64) #x0000000000000000)
(model-add temp182_11 () (_ BitVec 64) #x0000000000000000)
(model-add temp182_10 () (_ BitVec 64) #x0000000000000000)
(model-add temp182_13 () (_ BitVec 64) #x0000000000000000)
(model-add temp182_12 () (_ BitVec 64) #x0000000000000000)
(model-add temp182_15 () (_ BitVec 64) #x0000000000000000)
(model-add temp182_14 () (_ BitVec 64) #x0000000000000000)
(model-add temp182_17 () (_ BitVec 64) #x0000000000000000)
(model-add temp182_16 () (_ BitVec 64) #x0000000000000000)
(model-add temp182_19 () (_ BitVec 64) #x0000000000000000)
(model-add temp182_18 () (_ BitVec 64) #x0000000000000000)
(model-add temp182_21 () (_ BitVec 64) #x0000000000000000)
(model-add temp182_20 () (_ BitVec 64) #x0000000000000000)
(model-add temp182_23 () (_ BitVec 64) #x0000000000000000)
(model-add temp182_22 () (_ BitVec 64) #x0000000000000000)
(model-add temp182_25 () (_ BitVec 64) #x0000000000000000)
(model-add temp182_24 () (_ BitVec 64) #x0000000000000000)
(model-add temp182_27 () (_ BitVec 64) #x0000000000000000)
(model-add temp182_26 () (_ BitVec 64) #x0000000000000000)
(model-add temp182_29 () (_ BitVec 64) #x0000000000000000)
(model-add temp182_28 () (_ BitVec 64) #x0000000000000000)
(model-add temp182_31 () (_ BitVec 64) #x0000000000000000)
(model-add temp182_30 () (_ BitVec 64) #x0000000000000000)
(model-add temp182_33 () (_ BitVec 64) #x0000000000000000)
(model-add temp182_32 () (_ BitVec 64) #x0000000000000000)
(model-add temp182_35 () (_ BitVec 64) #x0000000000000000)
(model-add temp182_34 () (_ BitVec 64) #x0000000000000000)
(model-add temp182_37 () (_ BitVec 64) #x0000000000000000)
(model-add temp182_36 () (_ BitVec 64) #x0000000000000000)
(model-add temp182_39 () (_ BitVec 64) #x0000000000000000)
(model-add temp182_38 () (_ BitVec 64) #x0000000000000000)
(model-add temp182_41 () (_ BitVec 64) #x0000000000000000)
(model-add temp182_40 () (_ BitVec 64) #x0000000000000000)
(model-add temp182_43 () (_ BitVec 64) #x0000000000000000)
(model-add temp182_42 () (_ BitVec 64) #x0000000000000000)
(model-add temp182_45 () (_ BitVec 64) #x0000000000000000)
(model-add temp182_44 () (_ BitVec 64) #x0000000000000000)
(model-add temp182_47 () (_ BitVec 64) #x0000000000000000)
(model-add temp182_46 () (_ BitVec 64) #x0000000000000000)
(model-add temp182_49 () (_ BitVec 64) #x0000000000000000)
(model-add temp182_48 () (_ BitVec 64) #x0000000000000000)
(model-add temp182_51 () (_ BitVec 64) #x0000000000000000)
(model-add temp182_50 () (_ BitVec 64) #x0000000000000000)


